circuit_heights=[3, 4, 5, 6, 7, 8, 9, 10, 11, 15, 18, 20, 3, 4, 5, 6, 7, 9, 15, 18, 20, 4, 8, 17];
circuit_widths=[3, 3, 3, 3, 3, 3, 3, 3, 3, 3, 3, 3, 4, 4, 4, 4, 4, 4, 4, 4, 4, 5, 5, 5];
max_height=232;
min_height=29;
n_circuits=24;
plate_width=29;
